
******************************************************************************
This program contains Ipopt, a library for large-scale nonlinear optimization.
 Ipopt is released as open source code under the Eclipse Public License (EPL).
         For more information visit https://github.com/coin-or/Ipopt
******************************************************************************

This is Ipopt version 3.14.14, running with linear solver MUMPS 5.6.2.

Number of nonzeros in equality constraint Jacobian...:   149894
Number of nonzeros in inequality constraint Jacobian.:        0
Number of nonzeros in Lagrangian Hessian.............:    39980

Total number of variables............................:    43978
                     variables with only lower bounds:        0
                variables with lower and upper bounds:        0
                     variables with only upper bounds:        0
Total number of equality constraints.................:    39978
Total number of inequality constraints...............:        0
        inequality constraints with only lower bounds:        0
   inequality constraints with lower and upper bounds:        0
        inequality constraints with only upper bounds:        0

iter    objective    inf_pr   inf_du lg(mu)  ||d||  lg(rg) alpha_du alpha_pr  ls
   0  2.3000001e+02 9.80e+00 1.20e-01  -1.0 0.00e+00    -  0.00e+00 0.00e+00   0
   1  7.1867327e+02 4.39e-13 6.80e+02  -1.0 1.02e+01    -  1.00e+00 1.00e+00h  1
   2  7.1850583e+02 5.55e-09 1.10e-01  -1.0 1.10e-03   2.0 1.00e+00 1.00e+00f  1
   3  5.6870638e+02 5.21e-02 1.57e-02  -2.5 2.00e+00    -  1.00e+00 1.00e+00f  1
   4  5.6876251e+02 3.66e-04 3.68e-05  -2.5 1.66e-01    -  1.00e+00 1.00e+00h  1
   5  5.6876254e+02 1.83e-09 1.63e-10  -5.7 3.60e-04    -  1.00e+00 1.00e+00h  1

Number of Iterations....: 5

                                   (scaled)                 (unscaled)
Objective...............:   5.6876253708597108e+02    5.6876253708597108e+02
Dual infeasibility......:   1.6259808863910985e-10    1.6259808863910985e-10
Constraint violation....:   1.8323921546770094e-09    1.8323921546770094e-09
Variable bound violation:   0.0000000000000000e+00    0.0000000000000000e+00
Complementarity.........:   0.0000000000000000e+00    0.0000000000000000e+00
Overall NLP error.......:   1.8323921546770094e-09    1.8323921546770094e-09


Number of objective function evaluations             = 6
Number of objective gradient evaluations             = 6
Number of equality constraint evaluations            = 6
Number of inequality constraint evaluations          = 0
Number of equality constraint Jacobian evaluations   = 6
Number of inequality constraint Jacobian evaluations = 0
Number of Lagrangian Hessian evaluations             = 5
Total seconds in IPOPT (w/o function evaluations)    =      1.520
Total seconds in NLP function evaluations            =      0.376


Timing Statistics:

OverallAlgorithm....................:      8.769 (sys:      8.493 wall:      1.896)
 PrintProblemStatistics.............:      0.007 (sys:      0.005 wall:      0.001)
 InitializeIterates.................:      0.174 (sys:      0.032 wall:      0.207)
 UpdateHessian......................:      1.974 (sys:      1.919 wall:      0.247)
 OutputIteration....................:      0.019 (sys:      0.014 wall:      0.002)
 UpdateBarrierParameter.............:      0.003 (sys:      0.002 wall:      0.000)
 ComputeSearchDirection.............:      5.463 (sys:      5.447 wall:      1.300)
 ComputeAcceptableTrialPoint........:      0.537 (sys:      0.523 wall:      0.066)
 AcceptTrialPoint...................:      0.002 (sys:      0.002 wall:      0.000)
 CheckConvergence...................:      0.587 (sys:      0.547 wall:      0.071)
PDSystemSolverTotal.................:      5.455 (sys:      5.441 wall:      1.299)
 PDSystemSolverSolveOnce............:      5.300 (sys:      5.261 wall:      1.276)
 ComputeResiduals...................:      0.113 (sys:      0.149 wall:      0.019)
 StdAugSystemSolverMultiSolve.......:      5.422 (sys:      5.275 wall:      1.432)
 LinearSystemScaling................:      0.000 (sys:      0.000 wall:      0.000)
 LinearSystemSymbolicFactorization..:      0.057 (sys:      0.012 wall:      0.068)
 LinearSystemFactorization..........:      0.000 (sys:      0.000 wall:      0.000)
 LinearSystemBackSolve..............:      1.940 (sys:      1.914 wall:      0.323)
 LinearSystemStructureConverter.....:      0.000 (sys:      0.000 wall:      0.000)
  LinearSystemStructureConverterInit:      0.000 (sys:      0.000 wall:      0.000)
QualityFunctionSearch...............:      0.000 (sys:      0.000 wall:      0.000)
TryCorrector........................:      0.000 (sys:      0.000 wall:      0.000)
Task1...............................:      0.000 (sys:      0.000 wall:      0.000)
Task2...............................:      0.000 (sys:      0.000 wall:      0.000)
Task3...............................:      0.000 (sys:      0.000 wall:      0.000)
Task4...............................:      0.000 (sys:      0.000 wall:      0.000)
Task5...............................:      0.000 (sys:      0.000 wall:      0.000)
Task6...............................:      0.000 (sys:      0.000 wall:      0.000)
Function Evaluations................:      2.998 (sys:      2.860 wall:      0.376)
 Objective function.................:      0.090 (sys:      0.118 wall:      0.013)
 Objective function gradient........:      0.077 (sys:      0.082 wall:      0.011)
 Equality constraints...............:      0.488 (sys:      0.457 wall:      0.059)
 Inequality constraints.............:      0.000 (sys:      0.000 wall:      0.000)
 Equality constraint Jacobian.......:      0.370 (sys:      0.286 wall:      0.045)
 Inequality constraint Jacobian.....:      0.000 (sys:      0.000 wall:      0.000)
 Lagrangian Hessian.................:      1.973 (sys:      1.917 wall:      0.247)

EXIT: Optimal Solution Found.
